(set-info :Origin "This instance was generated by: BanditFuzz-- an RL fuzzer for SMT solvers" )
(set-info :Author "Joe Scott, Fed Mora, Vijay Ganesh" )
(set-info :Contact "Joe Scott, joseph.scott@uwaterloo.ca")
(set-logic QF_BV)
(declare-const bool_0 Bool)
(declare-const bool_1 Bool)
(declare-const bool_2 Bool)
(declare-const bool_3 Bool)
(declare-const bool_4 Bool)
(declare-const bv_0 (_ BitVec 32))
(declare-const bv_1 (_ BitVec 32))
(declare-const bv_2 (_ BitVec 32))
(declare-const bv_3 (_ BitVec 32))
(declare-const bv_4 (_ BitVec 32))
(assert (bvugt (bvand (bvsrem bv_4 bv_2) (bvmul bv_3 #x1c7b9f3d )) (bvnor (bvsrem #x84865249  bv_0) (bvsdiv bv_0 #x98ec4aa5 ))))
(assert (=> (bvult (bvor #x24f00444  bv_2) (bvashr bv_0 #xccd260c2 )) (bvsgt (bvor bv_3 bv_0) (bvnand #x64ade18b  bv_2))))
(assert (bvuge (bvlshr (bvsrem #x51a2fe3a  #xbd3f9487 ) (bvsrem bv_0 bv_3)) (bvmul (bvsrem bv_1 bv_1) (bvashr #x7f9194c3  #x3089397f ))))
(assert (or (and (bvugt bv_4 bv_2) (xor false bool_4)) (and (bvugt #x93b93b75  bv_3) (xor bool_4 bool_3))))
(assert (xor (bvsge (bvsrem #x15af339a  #x59911697 ) (bvashr #x614234ea  #x46ef8dc4 )) (xor (bvsgt #xb74758fa  #x20817904 ) (xor true false))))
(check-sat)
(exit)
